NAME : mtsp150.53305890.tour
COMMENT : Length = 53305890
COMMENT : Found by LKH-3 [Keld Helsgaun] Tue Mar 15 22:40:30 2022
TYPE : TOUR
DIMENSION : 169
TOUR_SECTION
1
58
151
51
152
110
153
25
154
108
155
28
156
77
157
3
158
145
159
131
160
140
161
69
162
117
163
20
164
142
165
150
166
135
167
23
168
93
40
54
64
144
2
44
73
68
85
55
112
107
39
50
116
82
126
13
95
147
37
96
30
48
14
100
57
87
121
78
81
5
103
33
76
65
56
101
67
22
106
125
29
105
136
62
52
27
41
83
71
17
146
43
128
123
46
34
149
115
12
120
9
35
7
60
86
45
98
91
109
114
11
63
74
84
59
104
88
26
102
99
111
36
38
16
18
137
134
94
70
124
53
4
66
129
118
119
143
139
97
19
75
49
6
90
24
10
113
72
21
127
141
15
32
47
132
79
130
80
92
8
42
122
31
89
133
138
148
169
61
-1
EOF
